c File: instances/36_0.55_3.col
c
c Description: Random graph of size 36 vertices and P(0.5499999999999999) of edges between any two vertices.
p col 36 630
e 1 2
e 1 3
e 1 5
e 1 6
e 1 7
e 1 11
e 1 13
e 1 14
e 1 18
e 1 19
e 1 20
e 1 21
e 1 22
e 1 23
e 1 24
e 1 25
e 1 27
e 1 28
e 1 29
e 1 30
e 1 31
e 1 32
e 1 34
e 1 35
e 2 4
e 2 5
e 2 8
e 2 9
e 2 10
e 2 11
e 2 17
e 2 18
e 2 22
e 2 23
e 2 29
e 2 30
e 2 31
e 2 32
e 2 36
e 3 7
e 3 8
e 3 9
e 3 11
e 3 14
e 3 15
e 3 16
e 3 18
e 3 19
e 3 20
e 3 21
e 3 23
e 3 24
e 3 26
e 3 28
e 3 32
e 3 35
e 4 5
e 4 7
e 4 10
e 4 12
e 4 13
e 4 14
e 4 15
e 4 17
e 4 18
e 4 19
e 4 20
e 4 21
e 4 22
e 4 24
e 4 25
e 4 29
e 4 31
e 4 32
e 4 33
e 4 34
e 4 36
e 5 8
e 5 10
e 5 15
e 5 16
e 5 18
e 5 20
e 5 21
e 5 22
e 5 23
e 5 24
e 5 25
e 5 26
e 5 30
e 5 32
e 5 33
e 5 34
e 6 7
e 6 8
e 6 9
e 6 10
e 6 11
e 6 13
e 6 14
e 6 15
e 6 16
e 6 17
e 6 18
e 6 19
e 6 21
e 6 22
e 6 24
e 6 25
e 6 28
e 6 30
e 6 31
e 7 11
e 7 12
e 7 14
e 7 16
e 7 17
e 7 20
e 7 21
e 7 23
e 7 25
e 7 29
e 7 30
e 7 33
e 7 35
e 7 36
e 8 9
e 8 11
e 8 12
e 8 16
e 8 17
e 8 18
e 8 19
e 8 21
e 8 22
e 8 23
e 8 25
e 8 26
e 8 28
e 8 29
e 8 30
e 8 32
e 8 33
e 8 35
e 9 10
e 9 12
e 9 15
e 9 16
e 9 17
e 9 18
e 9 21
e 9 22
e 9 25
e 9 33
e 9 34
e 10 11
e 10 12
e 10 14
e 10 16
e 10 20
e 10 21
e 10 23
e 10 27
e 10 31
e 10 35
e 11 12
e 11 13
e 11 15
e 11 16
e 11 19
e 11 20
e 11 21
e 11 22
e 11 29
e 11 30
e 11 31
e 11 32
e 11 34
e 12 14
e 12 15
e 12 18
e 12 19
e 12 22
e 12 23
e 12 24
e 12 25
e 12 30
e 12 31
e 12 33
e 13 15
e 13 16
e 13 17
e 13 21
e 13 22
e 13 25
e 13 26
e 13 28
e 13 29
e 13 31
e 13 32
e 13 34
e 14 16
e 14 17
e 14 20
e 14 22
e 14 23
e 14 25
e 14 26
e 14 27
e 14 29
e 14 30
e 14 31
e 14 33
e 15 19
e 15 20
e 15 21
e 15 23
e 15 25
e 15 28
e 15 29
e 15 32
e 15 34
e 16 17
e 16 22
e 16 23
e 16 25
e 16 26
e 16 27
e 16 28
e 16 30
e 16 31
e 16 32
e 16 34
e 16 36
e 17 20
e 17 21
e 17 24
e 17 25
e 17 28
e 17 30
e 17 32
e 17 33
e 17 34
e 18 21
e 18 22
e 18 23
e 18 24
e 18 25
e 18 28
e 18 29
e 18 31
e 18 32
e 18 33
e 18 36
e 19 20
e 19 23
e 19 24
e 19 25
e 19 26
e 19 27
e 19 28
e 19 31
e 19 34
e 19 35
e 19 36
e 20 22
e 20 23
e 20 24
e 20 27
e 20 28
e 20 31
e 20 32
e 20 33
e 20 34
e 20 35
e 21 22
e 21 23
e 21 24
e 21 26
e 21 29
e 21 30
e 21 31
e 21 34
e 21 35
e 21 36
e 22 23
e 22 26
e 22 27
e 22 28
e 22 29
e 22 31
e 22 33
e 22 34
e 22 36
e 23 25
e 23 27
e 23 28
e 23 29
e 23 30
e 24 25
e 24 27
e 24 29
e 24 30
e 24 32
e 24 33
e 24 34
e 25 26
e 25 27
e 25 29
e 25 30
e 25 31
e 25 33
e 25 34
e 25 35
e 25 36
e 26 27
e 26 29
e 26 30
e 26 31
e 26 32
e 26 33
e 26 34
e 26 35
e 27 33
e 27 34
e 27 36
e 28 29
e 28 30
e 28 31
e 28 32
e 28 34
e 28 35
e 29 30
e 29 32
e 29 36
e 30 35
e 30 36
e 31 32
e 31 33
e 31 34
e 32 33
e 32 35
e 33 36
e 34 35